p edge 320 1268
c 10742
e 0 137 1 0
e 0 260 46 1
e 0 295 1 3
e 0 116 1 4
e 0 120 21 5
e 0 287 44 6
e 1 275 30 7
e 1 72 1 10
e 1 157 1 11
e 1 185 1 12
e 2 165 2 14
e 2 65 39 15
e 2 198 1 16
e 2 159 1 17
e 2 136 1 19
e 2 176 42 20
e 2 254 43 21
e 2 312 31 22
e 3 6 25 23
e 3 204 1 24
e 3 290 1 25
e 3 255 1 26
e 3 13 1 27
e 3 131 1 29
e 3 176 12 30
e 3 275 13 31
e 4 33 1 33
e 4 55 1 34
e 4 109 40 35
e 4 8 1 36
e 4 26 1 37
e 4 196 19 38
e 5 314 2 41
e 5 32 1 42
e 5 131 1 43
e 5 206 1 44
e 6 194 13 45
e 6 32 16 47
e 6 25 15 48
e 6 210 35 50
e 7 128 1 51
e 7 246 1 52
e 7 134 1 54
e 7 58 3 55
e 7 82 2 56
e 7 272 1 57
e 8 284 34 59
e 8 91 1 61
e 8 207 1 62
e 8 273 2 63
e 9 145 1 64
e 9 299 29 66
e 9 186 2 67
e 9 141 1 68
e 9 226 1 69
e 10 175 2 71
e 10 34 1 72
e 10 229 1 73
e 10 177 8 74
e 10 41 1 75
e 10 110 2 77
e 10 252 34 78
e 10 283 1 79
e 10 286 2 80
e 10 318 1 81
e 11 176 22 83
e 11 299 3 84
e 11 164 40 86
e 11 317 1 88
e 12 248 1 89
e 12 316 1 90
e 12 256 26 91
e 12 103 1 92
e 12 14 1 93
e 12 35 7 94
e 12 57 1 95
e 12 209 1 97
e 12 269 1 98
e 13 55 1 99
e 13 267 1 100
e 13 49 1 102
e 13 172 1 103
e 13 175 1 104
e 13 203 10 105
e 13 316 1 106
e 14 25 1 107
e 14 211 1 108
e 14 27 2 110
e 14 189 1 111
e 14 262 1 112
e 14 276 2 113
e 15 207 1 114
e 15 72 1 115
e 15 306 1 116
e 15 58 33 118
e 15 61 1 119
e 15 249 1 121
e 15 270 48 122
e 16 212 47 123
e 16 95 19 124
e 16 132 25 125
e 16 289 27 126
e 16 127 5 127
e 16 143 25 128
e 16 147 23 129
e 16 149 47 130
e 16 167 33 131
e 16 200 46 132
e 16 260 10 133
e 16 263 32 134
e 17 274 1 135
e 17 66 3 136
e 17 184 1 137
e 17 81 1 139
e 17 102 1 140
e 17 172 1 141
e 17 288 40 142
e 18 99 1 144
e 18 187 1 145
e 18 283 1 146
e 18 76 4 147
e 18 148 1 149
e 18 194 1 150
e 18 299 39 151
e 19 231 1 152
e 19 40 1 153
e 19 112 27 155
e 19 118 1 156
e 19 146 1 157
e 19 205 5 158
e 20 99 2 159
e 20 271 1 160
e 20 83 1 162
e 20 42 1 163
e 20 193 1 164
e 21 73 15 165
e 21 80 1 166
e 21 23 1 168
e 21 46 1 169
e 21 126 1 170
e 21 189 1 171
e 21 204 1 172
e 22 137 35 174
e 22 72 9 175
e 22 313 45 177
e 22 63 3 179
e 22 116 27 180
e 22 208 30 181
e 22 245 34 182
e 23 150 22 183
e 23 295 1 184
e 23 185 1 185
e 23 222 1 187
e 23 224 2 188
e 24 67 1 189
e 24 142 45 190
e 24 285 1 191
e 24 100 1 192
e 24 107 2 193
e 24 181 1 194
e 24 193 1 195
e 24 310 1 197
e 25 176 41 198
e 25 280 1 200
e 25 45 1 201
e 25 78 1 202
e 25 237 1 203
e 26 308 1 205
e 26 69 25 206
e 26 60 1 207
e 26 171 1 208
e 26 223 1 209
e 26 230 2 210
e 26 305 1 211
e 27 268 24 214
e 27 65 5 215
e 27 279 1 218
e 27 289 38 219
e 28 274 41 220
e 28 30 24 221
e 28 276 45 222
e 28 90 5 224
e 28 275 33 225
e 29 232 2 226
e 29 182 38 228
e 29 94 2 229
e 29 153 2 230
e 30 111 1 233
e 30 118 1 234
e 30 165 2 236
e 30 185 1 237
e 31 89 33 238
e 31 45 24 239
e 31 277 11 240
e 31 86 11 241
e 31 200 46 243
e 31 207 46 244
e 31 211 38 245
e 32 130 1 247
e 32 49 1 248
e 32 51 1 249
e 32 279 1 250
e 32 118 1 251
e 33 234 3 254
e 33 222 1 255
e 33 139 1 256
e 33 200 1 257
e 33 42 1 258
e 33 216 29 260
e 33 239 1 261
e 34 216 39 262
e 34 98 1 264
e 34 96 1 266
e 34 151 7 267
e 34 208 25 268
e 35 176 15 270
e 35 262 6 272
e 35 47 40 273
e 35 280 36 275
e 36 114 4 276
e 36 172 36 277
e 36 76 35 278
e 36 43 30 280
e 36 117 28 281
e 36 251 25 282
e 36 292 21 283
e 37 139 29 285
e 37 252 5 287
e 38 179 40 288
e 38 48 44 289
e 38 308 11 290
e 38 133 17 291
e 38 145 35 292
e 38 177 38 293
e 39 309 1 296
e 39 47 1 297
e 39 51 1 298
e 39 139 1 299
e 39 235 2 301
e 39 262 1 302
e 40 55 1 304
e 40 204 1 305
e 40 91 1 306
e 40 258 1 307
e 41 107 2 310
e 41 85 1 312
e 41 194 1 313
e 42 87 1 314
e 42 135 1 315
e 42 59 1 316
e 43 254 15 319
e 43 80 2 321
e 43 113 1 322
e 43 152 1 323
e 43 194 1 325
e 43 221 1 326
e 44 187 1 327
e 44 242 4 328
e 44 93 2 329
e 44 213 3 332
e 44 306 1 334
e 45 84 33 335
e 45 238 1 336
e 45 125 2 337
e 45 85 1 339
e 46 204 2 340
e 46 202 1 341
e 46 80 1 343
e 46 86 49 344
e 46 219 1 346
e 47 181 2 347
e 47 99 1 348
e 47 308 1 349
e 47 161 1 350
e 47 285 1 352
e 47 287 27 353
e 47 290 1 354
e 48 51 34 355
e 48 152 24 356
e 48 147 10 357
e 48 309 43 358
e 49 287 45 360
e 49 72 2 362
e 49 75 1 363
e 50 262 7 364
e 50 214 10 365
e 50 92 5 366
e 51 108 17 370
e 51 182 10 371
e 51 65 14 372
e 51 307 1 374
e 52 252 18 377
e 52 250 15 378
e 52 92 1 379
e 52 154 1 380
e 52 260 11 381
e 52 269 1 382
e 53 137 1 383
e 53 189 1 384
e 53 111 1 385
e 53 88 1 386
e 53 54 1 387
e 53 96 35 388
e 54 302 1 390
e 54 134 1 391
e 54 105 1 392
e 55 77 1 394
e 55 82 2 395
e 55 71 1 396
e 55 245 1 397
e 55 101 47 398
e 56 133 35 400
e 56 236 43 401
e 56 252 24 402
e 56 226 25 403
e 56 84 35 404
e 56 182 28 405
e 56 250 23 406
e 56 259 19 407
e 56 267 4 408
e 56 277 30 409
e 57 138 1 410
e 57 178 1 411
e 57 226 1 412
e 57 98 1 415
e 57 119 2 416
e 57 173 1 417
e 57 247 2 418
e 58 197 8 420
e 58 66 43 421
e 58 191 27 422
e 59 306 1 424
e 59 198 1 425
e 60 218 1 428
e 60 155 1 430
e 61 87 1 431
e 61 303 42 432
e 61 100 1 433
e 61 135 1 434
e 62 226 25 435
e 62 217 27 436
e 62 98 47 437
e 62 150 5 438
e 62 276 45 439
e 62 292 24 440
e 63 177 33 441
e 63 112 49 443
e 63 182 29 444
e 63 192 1 445
e 63 291 6 446
e 64 175 1 447
e 64 288 45 448
e 64 159 1 449
e 64 262 1 450
e 64 79 1 451
e 64 137 1 452
e 64 238 1 454
e 64 294 1 455
e 65 241 32 456
e 65 131 38 459
e 65 272 44 461
e 65 300 10 462
e 67 277 36 466
e 67 249 2 467
e 67 99 1 470
e 67 307 1 471
e 68 229 1 472
e 68 248 1 473
e 68 99 1 475
e 68 297 1 476
e 68 302 1 477
e 69 141 29 478
e 69 166 37 479
e 69 242 1 481
e 69 74 1 482
e 69 315 33 483
e 70 223 1 484
e 70 115 1 486
e 70 193 1 487
e 70 114 1 488
e 70 179 1 489
e 70 214 1 490
e 70 245 1 491
e 70 262 1 492
e 70 298 1 493
e 71 147 2 494
e 71 160 33 495
e 71 294 1 497
e 71 102 2 498
e 71 195 1 499
e 72 119 1 501
e 72 225 1 502
e 72 102 2 504
e 72 104 1 505
e 72 112 42 506
e 72 246 1 507
e 72 274 1 508
e 73 109 45 509
e 73 87 41 510
e 73 213 27 511
e 73 170 21 512
e 73 186 15 513
e 73 319 11 514
e 74 295 1 515
e 74 314 1 516
e 74 147 1 517
e 74 265 1 518
e 74 266 38 519
e 74 292 30 520
e 75 315 1 521
e 75 221 1 522
e 75 163 49 524
e 75 188 1 525
e 75 241 1 526
e 75 304 1 527
e 76 88 8 529
e 76 228 33 531
e 76 318 24 532
e 77 150 28 533
e 77 216 47 534
e 77 139 1 535
e 77 212 36 536
e 77 205 30 537
e 78 179 1 538
e 78 216 12 539
e 78 241 1 540
e 78 92 1 541
e 78 184 1 543
e 78 251 1 544
e 78 291 2 545
e 79 155 2 546
e 79 215 1 547
e 79 120 37 548
e 79 156 1 549
e 79 235 2 551
e 80 228 1 552
e 80 296 1 553
e 80 104 1 554
e 81 267 1 556
e 81 318 1 558
e 81 306 1 560
e 82 148 1 562
e 82 100 1 563
e 82 115 2 564
e 83 139 1 565
e 83 285 1 566
e 83 288 13 567
e 83 158 1 568
e 83 107 1 569
e 83 178 1 570
e 84 113 21 572
e 84 105 7 574
e 84 175 13 575
e 84 190 38 576
e 84 215 36 577
e 84 216 40 578
e 84 227 31 579
e 85 191 7 580
e 85 111 2 581
e 85 259 1 582
e 85 319 1 583
e 86 161 10 584
e 86 279 45 586
e 86 113 2 587
e 86 143 7 588
e 86 210 28 589
e 86 300 31 590
e 87 118 1 592
e 87 89 1 593
e 87 278 1 594
e 87 218 1 595
e 87 232 1 596
e 87 284 37 597
e 88 262 1 598
e 88 119 1 601
e 89 274 1 602
e 89 157 1 603
e 89 247 1 605
e 89 110 3 606
e 89 144 1 607
e 90 300 7 608
e 90 256 23 609
e 90 163 15 610
e 90 312 9 611
e 91 251 1 612
e 91 112 23 613
e 91 137 1 614
e 91 316 1 615
e 92 236 43 618
e 93 248 1 619
e 93 98 1 621
e 93 259 1 622
e 93 154 3 623
e 93 189 2 624
e 93 220 2 625
e 93 241 3 626
e 93 310 1 627
e 94 207 16 628
e 94 248 34 629
e 94 301 27 630
e 94 137 23 631
e 94 124 39 632
e 94 211 27 633
e 95 318 1 634
e 95 246 1 635
e 95 289 2 636
e 96 316 46 638
e 96 98 19 639
e 96 112 46 640
e 97 276 1 642
e 97 269 1 644
e 97 153 1 645
e 97 117 29 646
e 97 133 1 647
e 97 208 37 648
e 97 245 1 649
e 98 125 1 651
e 98 108 11 652
e 98 109 27 653
e 98 129 1 654
e 98 201 1 655
e 98 295 1 656
e 99 208 5 657
e 99 295 1 658
e 99 111 1 659
e 99 169 1 660
e 99 251 1 662
e 99 254 39 663
e 99 290 1 664
e 100 238 1 665
e 100 168 2 666
e 101 207 20 667
e 101 197 8 668
e 101 277 30 669
e 101 243 18 671
e 101 250 5 672
e 101 266 1 673
e 101 317 9 674
e 102 126 1 675
e 102 280 1 676
e 103 318 1 677
e 103 267 1 678
e 103 262 1 680
e 104 183 19 682
e 104 213 5 683
e 104 132 1 684
e 104 147 1 685
e 104 215 1 686
e 105 226 1 688
e 105 315 1 689
e 105 267 1 691
e 105 177 47 692
e 105 247 1 693
e 105 256 14 694
e 106 110 2 696
e 106 311 43 697
e 106 211 1 698
e 106 111 2 699
e 106 123 41 700
e 106 247 1 701
e 107 245 1 703
e 107 161 1 704
e 108 122 33 705
e 108 200 3 706
e 108 202 1 708
e 108 164 4 709
e 108 212 13 710
e 108 263 48 711
e 108 300 12 712
e 109 121 30 713
e 109 178 9 715
e 110 193 2 716
e 110 172 1 717
e 110 130 1 718
e 110 190 1 720
e 110 227 2 721
e 111 256 8 722
e 111 232 2 723
e 111 186 1 724
e 111 145 1 725
e 112 273 12 727
e 112 211 1 729
e 112 219 4 730
e 113 146 1 733
e 113 308 1 734
e 113 166 1 735
e 113 197 1 736
e 113 271 1 737
e 113 295 1 738
e 114 244 14 740
e 115 272 1 744
e 115 276 1 746
e 116 148 1 749
e 116 285 1 750
e 116 305 1 751
e 117 275 40 752
e 117 140 23 754
e 117 253 13 756
e 117 281 12 757
e 118 226 1 758
e 118 167 1 760
e 118 231 1 761
e 119 201 2 762
e 119 136 3 763
e 119 128 1 764
e 119 138 1 765
e 119 195 2 766
e 120 173 49 767
e 120 284 22 771
e 120 287 7 772
e 121 218 21 773
e 121 315 37 774
e 121 200 39 775
e 121 166 29 777
e 121 256 43 779
e 122 139 1 782
e 122 214 19 784
e 122 253 1 785
e 122 304 1 786
e 123 130 8 787
e 123 223 22 788
e 123 228 49 789
e 124 277 44 792
e 124 185 1 793
e 125 178 1 795
e 125 162 2 796
e 125 229 1 797
e 125 180 1 798
e 125 255 2 799
e 125 265 2 800
e 126 250 3 801
e 126 144 1 802
e 126 215 2 803
e 126 139 1 804
e 126 149 24 805
e 126 153 1 806
e 126 264 1 807
e 126 291 2 808
e 127 159 2 809
e 127 184 1 810
e 128 208 1 814
e 128 258 1 815
e 128 197 1 816
e 129 200 1 818
e 129 294 1 819
e 129 166 1 821
e 129 222 1 822
e 129 225 1 823
e 129 312 43 824
e 129 317 1 825
e 130 136 1 826
e 130 308 1 827
e 130 151 45 829
e 131 143 1 830
e 131 136 1 831
e 132 251 1 832
e 132 180 1 834
e 132 268 42 835
e 133 251 1 836
e 133 310 1 837
e 133 148 1 838
e 133 153 1 839
e 133 171 1 840
e 133 257 1 841
e 134 297 1 843
e 134 183 24 844
e 134 150 12 846
e 134 231 1 847
e 134 267 1 848
e 134 282 13 849
e 134 309 1 851
e 135 140 42 852
e 135 178 1 853
e 135 255 1 854
e 137 255 1 857
e 137 168 1 858
e 137 176 2 859
e 138 149 45 862
e 138 305 1 863
e 138 217 1 865
e 139 193 1 866
e 139 217 1 867
e 139 286 2 869
e 140 238 43 870
e 140 200 21 872
e 140 311 38 873
e 141 186 1 874
e 141 242 9 875
e 141 277 11 876
e 142 268 5 877
e 142 314 35 878
e 142 161 21 879
e 142 193 21 880
e 142 173 45 881
e 142 219 34 882
e 142 261 35 884
e 143 154 1 885
e 143 247 1 887
e 144 221 1 888
e 144 156 1 890
e 144 224 1 891
e 144 298 1 892
e 144 310 1 893
e 145 181 1 894
e 145 299 30 895
e 145 178 1 896
e 145 319 1 898
e 146 306 1 901
e 146 209 1 902
e 146 279 1 903
e 147 165 2 905
e 147 206 1 906
e 148 297 1 908
e 148 182 16 909
e 148 155 1 910
e 148 232 1 911
e 148 240 1 912
e 149 184 5 913
e 149 155 48 914
e 149 178 11 916
e 150 318 18 917
e 150 282 6 918
e 150 284 29 919
e 151 225 24 920
e 152 299 13 922
e 152 311 8 924
e 153 194 2 926
e 153 218 1 928
e 153 230 1 929
e 154 186 1 930
e 154 164 26 931
e 154 176 13 932
e 154 183 41 933
e 155 243 1 936
e 155 163 18 937
e 156 219 1 938
e 156 213 38 939
e 156 317 1 940
e 157 187 1 942
e 157 236 6 943
e 157 183 10 946
e 157 191 1 947
e 157 224 2 948
e 157 275 13 949
e 157 311 34 950
e 158 304 1 951
e 158 282 46 954
e 158 216 29 955
e 158 272 1 957
e 159 290 1 959
e 159 277 34 960
e 159 251 1 961
e 159 238 1 962
e 160 196 45 963
e 160 184 28 964
e 160 179 20 965
e 161 241 1 967
e 161 271 1 968
e 162 302 1 969
e 162 164 39 971
e 162 207 2 972
e 163 259 43 974
e 163 228 32 975
e 165 227 2 977
e 166 199 16 979
e 167 275 28 981
e 167 174 1 982
e 167 199 42 983
e 167 264 1 984
e 168 273 1 986
e 169 251 1 988
e 169 256 4 990
e 169 200 1 991
e 170 299 26 995
e 170 191 5 996
e 170 212 32 997
e 171 261 19 1001
e 171 273 1 1002
e 171 312 10 1003
e 172 240 1 1004
e 172 302 1 1006
e 173 190 1 1007
e 173 195 2 1008
e 174 295 1 1009
e 174 201 2 1010
e 174 184 3 1011
e 176 202 14 1015
e 176 303 5 1016
e 176 306 14 1017
e 177 274 29 1018
e 177 209 8 1019
e 177 229 2 1020
e 177 267 29 1021
e 177 301 39 1022
e 177 312 4 1023
e 178 201 1 1024
e 178 221 1 1025
e 178 254 48 1026
e 179 290 1 1028
e 181 209 1 1033
e 181 270 21 1035
e 182 304 47 1036
e 183 302 43 1037
e 183 286 12 1038
e 184 212 1 1039
e 185 284 25 1040
e 186 262 1 1042
e 186 202 1 1043
e 186 226 1 1044
e 186 240 1 1045
e 186 316 1 1046
e 187 290 1 1047
e 187 302 1 1048
e 187 313 1 1049
e 187 277 20 1050
e 188 219 1 1051
e 188 276 1 1052
e 189 234 2 1053
e 189 235 3 1054
e 190 264 1 1055
e 190 230 1 1056
e 190 252 3 1059
e 190 294 1 1060
e 191 225 39 1061
e 191 239 38 1062
e 192 283 1 1064
e 192 204 1 1065
e 193 268 1 1066
e 194 208 41 1068
e 194 209 1 1069
e 196 230 14 1071
e 196 313 3 1072
e 196 255 31 1073
e 196 256 41 1074
e 197 207 1 1075
e 197 244 33 1078
e 198 210 20 1079
e 198 308 1 1080
e 198 267 1 1081
e 198 229 1 1082
e 199 280 12 1083
e 199 283 15 1085
e 200 234 3 1086
e 201 311 45 1087
e 201 202 1 1088
e 201 215 2 1089
e 201 263 17 1090
e 201 265 1 1091
e 201 293 1 1092
e 202 269 1 1093
e 202 236 47 1095
e 203 300 12 1096
e 203 307 29 1097
e 203 257 38 1098
e 203 314 2 1099
e 204 281 1 1100
e 204 253 3 1101
e 205 257 46 1102
e 205 214 48 1103
e 205 301 9 1104
e 205 307 20 1105
e 206 207 1 1106
e 206 221 1 1107
e 207 304 1 1108
e 207 209 1 1110
e 207 227 1 1111
e 207 244 7 1112
e 207 296 2 1113
e 208 248 23 1114
e 209 232 1 1116
e 209 248 1 1117
e 210 309 21 1119
e 212 311 4 1123
e 213 281 17 1124
e 213 290 6 1125
e 213 252 32 1126
e 213 269 36 1127
e 213 315 6 1128
e 214 227 12 1129
e 214 216 26 1130
e 214 250 41 1131
e 215 304 2 1132
e 217 272 1 1133
e 217 289 43 1134
e 217 218 1 1135
e 218 224 1 1136
e 218 268 23 1137
e 219 283 1 1139
e 220 238 1 1140
e 220 277 1 1141
e 220 290 1 1142
e 221 258 1 1143
e 221 308 2 1144
e 222 253 1 1145
e 224 258 1 1147
e 225 259 1 1148
e 225 227 1 1149
e 225 274 1 1150
e 226 270 29 1151
e 226 281 1 1152
e 226 228 1 1153
e 226 256 43 1155
e 226 258 1 1156
e 227 277 3 1157
e 227 234 3 1158
e 227 273 1 1159
e 228 252 10 1160
e 228 241 1 1161
e 228 249 1 1162
e 228 289 11 1163
e 229 267 1 1164
e 230 305 1 1165
e 230 297 2 1166
e 231 263 21 1167
e 231 309 1 1168
e 232 317 1 1169
e 232 281 2 1171
e 233 279 1 1173
e 236 311 17 1174
e 236 315 25 1175
e 237 241 1 1177
e 237 255 1 1178
e 238 272 1 1180
e 239 277 12 1181
e 239 318 1 1182
e 240 251 1 1183
e 240 285 1 1184
e 241 265 1 1186
e 241 261 21 1187
e 241 280 1 1188
e 242 317 32 1189
e 242 255 2 1191
e 242 297 37 1193
e 243 266 41 1195
e 244 296 13 1198
e 245 294 3 1199
e 245 261 32 1201
e 245 263 18 1202
e 245 317 1 1203
e 246 306 1 1204
e 246 271 1 1205
e 248 249 1 1208
e 248 289 3 1209
e 249 252 26 1210
e 250 270 9 1211
e 252 281 35 1214
e 252 299 7 1216
e 252 313 45 1217
e 253 280 1 1218
e 253 305 1 1219
e 253 315 1 1220
e 255 273 1 1221
e 257 297 1 1223
e 259 284 36 1225
e 261 268 11 1226
e 261 288 14 1227
e 264 265 1 1228
e 264 308 1 1230
e 267 301 1 1233
e 267 293 1 1234
e 267 294 1 1235
e 267 309 1 1236
e 268 272 1 1237
e 269 313 1 1238
e 271 273 1 1239
e 271 279 2 1240
e 272 318 1 1241
e 272 292 49 1242
e 272 301 1 1243
e 273 290 1 1244
e 276 316 1 1245
e 276 294 2 1246
e 278 288 32 1247
e 279 315 1 1249
e 282 300 37 1250
e 282 306 36 1251
e 283 316 1 1252
e 285 298 1 1254
e 285 318 1 1255
e 286 296 1 1256
e 286 293 1 1257
e 287 299 14 1258
e 288 292 30 1259
e 290 314 1 1260
e 294 300 2 1261
e 295 304 1 1262
e 301 307 1 1265
e 302 316 1 1266
e 311 316 2 1267
